min: c;

c = 3.38003951011914 * u1_t7_h4 + 3.4591551543458 * u1_t7_h5 + 4.32422160480527 * u1_t5_h6 + 4.32422160480527 * u1_t7_h6 + 4.52198646425305 * u1_t5_h7 + 4.52198646425305 * u1_t7_h7 + 4.52198646425305 * u1_t9_h7 + 5.28087998757586 * u1_t5_h8 + 5.28087998757586 * u1_t7_h8 + 5.28087998757586 * u1_t9_h8 + 5.28087998757586 * u1_t10_h8 + 4.69662027018638 * u1_t5_h9 + 4.69662027018638 * u1_t7_h9 + 4.69662027018638 * u1_t9_h9 + 4.69662027018638 * u1_t10_h9 + 5.63480793828864 * u1_t5_h10 + 5.63480793828864 * u1_t7_h10 + 5.63480793828864 * u1_t9_h10 + 5.63480793828864 * u1_t10_h10 + 4.02442560731653 * u1_t5_h11 + 4.02442560731653 * u1_t9_h11 + 4.02442560731653 * u1_t10_h11 + 5.73872391491587 * u1_t4_h12 + 5.73872391491587 * u1_t5_h12 + 5.73872391491587 * u1_t8_h12 + 5.73872391491587 * u1_t9_h12 + 5.73872391491587 * u1_t10_h12 + 4.72233524009765 * u1_t4_h13 + 4.72233524009765 * u1_t8_h13 + 4.72233524009765 * u1_t9_h13 + 4.72233524009765 * u1_t10_h13 + 5.5763063655656 * u1_t4_h14 + 5.5763063655656 * u1_t8_h14 + 5.5763063655656 * u1_t9_h14 + 5.5763063655656 * u1_t10_h14 + 6.26881945859791 * u1_t4_h15 + 6.26881945859791 * u1_t8_h15 + 5.87796683146621 * u1_t4_h16 + 5.87796683146621 * u1_t8_h16 + 6.00545156303609 * u1_t4_h17 + 6.00545156303609 * u1_t8_h17 + 6.12861041656129 * u1_t2_h18 + 6.12861041656129 * u1_t4_h18 + 6.12861041656129 * u1_t6_h18 + 6.12861041656129 * u1_t8_h18 + 5.19182043683401 * u1_t2_h19 + 5.19182043683401 * u1_t3_h19 + 5.19182043683401 * u1_t4_h19 + 5.19182043683401 * u1_t6_h19 + 5.11985026415675 * u1_t1_h20 + 5.11985026415675 * u1_t2_h20 + 5.11985026415675 * u1_t3_h20 + 5.11985026415675 * u1_t4_h20 + 5.11985026415675 * u1_t6_h20 + 4.78465791532285 * u1_t1_h21 + 4.78465791532285 * u1_t2_h21 + 4.78465791532285 * u1_t3_h21 + 5.30087871203658 * u1_t1_h22 + 5.30087871203658 * u1_t2_h22 + 5.72274668944286 * u1_t1_h23 + 5.72274668944286 * u1_t2_h23;
0 <= u1_t1_h20 <= 1;
0 <= u1_t1_h21 <= 1;
0 <= u1_t1_h22 <= 1;
0 <= u1_t1_h23 <= 1;
u1_t1_h20 + u1_t1_h21 + u1_t1_h22 + u1_t1_h23 = 1;
0 <= u1_t2_h18 <= 1;
0 <= u1_t2_h19 <= 1;
0 <= u1_t2_h20 <= 1;
0 <= u1_t2_h21 <= 1;
0 <= u1_t2_h22 <= 1;
0 <= u1_t2_h23 <= 1;
u1_t2_h18 + u1_t2_h19 + u1_t2_h20 + u1_t2_h21 + u1_t2_h22 + u1_t2_h23 = 2;
0 <= u1_t3_h19 <= 1;
0 <= u1_t3_h20 <= 1;
0 <= u1_t3_h21 <= 1;
u1_t3_h19 + u1_t3_h20 + u1_t3_h21 = 1;
0 <= u1_t4_h12 <= 1;
0 <= u1_t4_h13 <= 1;
0 <= u1_t4_h14 <= 1;
0 <= u1_t4_h15 <= 1;
0 <= u1_t4_h16 <= 1;
0 <= u1_t4_h17 <= 1;
0 <= u1_t4_h18 <= 1;
0 <= u1_t4_h19 <= 1;
0 <= u1_t4_h20 <= 1;
u1_t4_h12 + u1_t4_h13 + u1_t4_h14 + u1_t4_h15 + u1_t4_h16 + u1_t4_h17 + u1_t4_h18 + u1_t4_h19 + u1_t4_h20 = 3;
0 <= u1_t5_h6 <= 1;
0 <= u1_t5_h7 <= 1;
0 <= u1_t5_h8 <= 1;
0 <= u1_t5_h9 <= 1;
0 <= u1_t5_h10 <= 1;
0 <= u1_t5_h11 <= 1;
0 <= u1_t5_h12 <= 1;
u1_t5_h6 + u1_t5_h7 + u1_t5_h8 + u1_t5_h9 + u1_t5_h10 + u1_t5_h11 + u1_t5_h12 = 3;
0 <= u1_t6_h18 <= 1;
0 <= u1_t6_h19 <= 1;
0 <= u1_t6_h20 <= 1;
u1_t6_h18 + u1_t6_h19 + u1_t6_h20 = 2;
0 <= u1_t7_h4 <= 1;
0 <= u1_t7_h5 <= 1;
0 <= u1_t7_h6 <= 1;
0 <= u1_t7_h7 <= 1;
0 <= u1_t7_h8 <= 1;
0 <= u1_t7_h9 <= 1;
0 <= u1_t7_h10 <= 1;
u1_t7_h4 + u1_t7_h5 + u1_t7_h6 + u1_t7_h7 + u1_t7_h8 + u1_t7_h9 + u1_t7_h10 = 2;
0 <= u1_t8_h12 <= 1;
0 <= u1_t8_h13 <= 1;
0 <= u1_t8_h14 <= 1;
0 <= u1_t8_h15 <= 1;
0 <= u1_t8_h16 <= 1;
0 <= u1_t8_h17 <= 1;
0 <= u1_t8_h18 <= 1;
u1_t8_h12 + u1_t8_h13 + u1_t8_h14 + u1_t8_h15 + u1_t8_h16 + u1_t8_h17 + u1_t8_h18 = 2;
0 <= u1_t9_h7 <= 1;
0 <= u1_t9_h8 <= 1;
0 <= u1_t9_h9 <= 1;
0 <= u1_t9_h10 <= 1;
0 <= u1_t9_h11 <= 1;
0 <= u1_t9_h12 <= 1;
0 <= u1_t9_h13 <= 1;
0 <= u1_t9_h14 <= 1;
u1_t9_h7 + u1_t9_h8 + u1_t9_h9 + u1_t9_h10 + u1_t9_h11 + u1_t9_h12 + u1_t9_h13 + u1_t9_h14 = 3;
0 <= u1_t10_h8 <= 1;
0 <= u1_t10_h9 <= 1;
0 <= u1_t10_h10 <= 1;
0 <= u1_t10_h11 <= 1;
0 <= u1_t10_h12 <= 1;
0 <= u1_t10_h13 <= 1;
0 <= u1_t10_h14 <= 1;
u1_t10_h8 + u1_t10_h9 + u1_t10_h10 + u1_t10_h11 + u1_t10_h12 + u1_t10_h13 + u1_t10_h14 = 3;
